
  32    4
  10   10   10   10

   0   0   0   0   0   1 2 
   6   0   1   1   1   1 3 
   9   1   0   2   5   2 31 4 
   1   5   4   0   3   1 5 
   5   4   5   7   0   1 6 
   8   5   2   0   4   2 30 7 
   7   0   3   4   2   1 8 
   6   4   9   0   4   1 9 
   4   1   0   2   3   1 10 
   6   2   4  10   0   1 11 
   7   4   0   6   8   1 12 
   1   2   5   5   0   1 13 
   2   5   2   6   0   1 14 
   4   6   7   0   7   1 15 
   8   0   3   3   4   1 16 
   8   3   0   4   4   1 17 
   4   0   4   3   6   1 18 
   6   2   5   0   2   1 19 
  10   0   2   2   6   1 20 
  10   4   3   7   0   2 29 21 
   1   2   6   2   0   1 22 
  10   0   1   2   3   1 23 
  10   5   0   4   3   1 24 
   2   4   2   3   0   1 25 
   2   5   2   3   0   1 26 
   1   7   3   0   6   1 27 
  10   0   6   4   4   1 28 
   2   8   6   3   0   1 32
   1   0   4   4   3   1 32
   5   5   6   0   2   1 32
   7   0   5   5   4   1 32
   0   0   0   0   0   0 
